Optimal - objective value 28.00743100
      0 c_0                         1                       1
      1 c_1                         1                       1
      2 c_2                         1                       1
      3 c_3                         1                       1
      4 c_4                         1                       1
      5 c_5                         1                       1
      7 c_7                         1                       1
      8 c_8                         1                       1
      9 c_9                         1                       1
     10 c_10                        1                       1
     11 c_11                        1                       1
     12 c_12                        1                       1
     13 c_13                        1                       1
     14 c_14                        1                       1
     15 c_15                        1                       1
     16 c_16                        1                       1
     17 c_17                        1                       1
     18 c_18                        1                       1
     19 c_19                        1                       1
     20 c_20                        1                       1
     21 c_21                        1                       1
     22 c_22                        1                       1
     23 c_23                        1                       1
     24 c_24                        1                       1
     25 c_25                        1                       1
     26 c_26                        1                       1
     27 c_27                        1                       1
     28 c_28                        1                       1
     35 r_5                         1                0.000933
     50 r_20                        1                0.000933
     52 r_22                        1                0.000933
     55 b_0                         1                  0.0009
     56 b_1                         1                0.000933
     59 b_4                         1                0.000933
     61 b_6                         1                0.000933
     78 b_23                        1                0.000933
